
Gurobi 7.5.2 (linux64) logging started Sat Jul  7 15:59:42 2018

Changed value of parameter LogFile to result/ilp/simNo_6-n_100-m_40-s_7-minVAF_0.05-cov_10000-k_2-fn_0.15-fp_0.0001-na_0.15.ILP.gurobiSolverLog
   Prev: gurobi.log  Default: 
Changed value of parameter TimeLimit to 86400.0
   Prev: 1e+100  Min: 0.0  Max: 1e+100  Default: 1e+100
Optimize a model with 639293 rows, 10765 columns and 1940420 nonzeros
Variable types: 0 continuous, 10765 integer (10765 binary)
Coefficient statistics:
  Matrix range     [1e-04, 4e+00]
  Objective range  [1e+00, 1e+01]
  Bounds range     [1e+00, 1e+00]
  RHS range        [8e-02, 2e+00]
Found heuristic solution: objective -10463.83988
Presolve removed 142340 rows and 1144 columns (presolve time = 6s) ...
Presolve removed 212838 rows and 1842 columns (presolve time = 10s) ...
Presolve removed 212838 rows and 1842 columns
Presolve time: 14.46s
Presolved: 426455 rows, 8923 columns, 1279095 nonzeros
Variable types: 0 continuous, 8923 integer (8923 binary)
Presolved: 8923 rows, 435378 columns, 1288018 nonzeros

Presolve removed 8923 rows and 435378 columns

Root simplex log...

Iteration    Objective       Primal Inf.    Dual Inf.      Time
       0    2.8929545e+01   0.000000e+00   4.830900e+04     18s
   19592   -2.4750992e+02   0.000000e+00   7.095333e+02     20s
   20540   -2.4852896e+02   0.000000e+00   0.000000e+00     21s
   20540   -2.4852896e+02   0.000000e+00   0.000000e+00     22s

Root relaxation: objective -2.485290e+02, 20540 iterations, 6.47 seconds
Total elapsed time = 37.60s
Total elapsed time = 42.36s

    Nodes    |    Current Node    |     Objective Bounds      |     Work
 Expl Unexpl |  Obj  Depth IntInf | Incumbent    BestBd   Gap | It/Node Time

     0     0 -248.52896    0 1217 -10463.840 -248.52896  97.6%     -   46s
H    0     0                    -328.4877484 -248.52896  24.3%     -   50s
H    0     0                    -317.0580641 -248.52896  21.6%     -   51s
H    0     0                    -271.5175135 -248.52896  8.47%     -   52s
     0     0 -251.31188    0 1265 -271.51751 -251.31188  7.44%     -   65s
H    0     0                    -263.2737444 -251.31188  4.54%     -   71s
     0     0 -254.90731    0 1146 -263.27374 -254.90731  3.18%     -  180s
     0     0 -255.07123    0 1282 -263.27374 -255.07123  3.12%     -  242s
     0     0 -255.07123    0 1282 -263.27374 -255.07123  3.12%     -  248s
     0     0 -255.20202    0 1266 -263.27374 -255.20202  3.07%     -  345s
     0     0 -255.20202    0  411 -263.27374 -255.20202  3.07%     -  403s
     0     0 -255.20202    0  335 -263.27374 -255.20202  3.07%     -  409s
     0     0 -255.20202    0  440 -263.27374 -255.20202  3.07%     -  413s
     0     0 -255.26213    0  424 -263.27374 -255.26213  3.04%     -  416s
     0     0 -255.29853    0  334 -263.27374 -255.29853  3.03%     -  417s
     0     0 -256.52601    0  516 -263.27374 -256.52601  2.56%     -  420s
     0     0 -256.57589    0  536 -263.27374 -256.57589  2.54%     -  423s
     0     0 -256.57589    0  539 -263.27374 -256.57589  2.54%     -  425s
     0     0 -257.22508    0  431 -263.27374 -257.22508  2.30%     -  429s
     0     0 -257.27288    0  441 -263.27374 -257.27288  2.28%     -  432s
     0     0 -257.27288    0  442 -263.27374 -257.27288  2.28%     -  433s
     0     0 -257.29959    0  540 -263.27374 -257.29959  2.27%     -  435s
     0     0 -257.46200    0  515 -263.27374 -257.46200  2.21%     -  438s
     0     0 -257.46907    0  515 -263.27374 -257.46907  2.20%     -  440s
     0     0 -257.46907    0  515 -263.27374 -257.46907  2.20%     -  442s
     0     0 -258.04998    0  428 -263.27374 -258.04998  1.98%     -  455s
     0     0 -258.04998    0  355 -263.27374 -258.04998  1.98%     -  475s
     0     0 -258.04998    0  357 -263.27374 -258.04998  1.98%     -  476s
     0     0 -258.04998    0  345 -263.27374 -258.04998  1.98%     -  477s
     0     0 -258.04998    0  348 -263.27374 -258.04998  1.98%     -  478s
     0     0 -258.39759    0  273 -263.27374 -258.39759  1.85%     -  478s
     0     0 -258.51308    0  350 -263.27374 -258.51308  1.81%     -  479s
     0     0 -258.63939    0  283 -263.27374 -258.63939  1.76%     -  479s
     0     0 -258.68549    0  334 -263.27374 -258.68549  1.74%     -  480s
     0     0 -258.68549    0  334 -263.27374 -258.68549  1.74%     -  480s
     0     0 -258.81343    0  344 -263.27374 -258.81343  1.69%     -  481s
     0     0 -258.88792    0  327 -263.27374 -258.88792  1.67%     -  482s
     0     0 -258.93406    0  326 -263.27374 -258.93406  1.65%     -  482s
     0     0 -258.95327    0  325 -263.27374 -258.95327  1.64%     -  483s
     0     0 -258.95795    0  325 -263.27374 -258.95795  1.64%     -  483s
     0     0 -258.96029    0  346 -263.27374 -258.96029  1.64%     -  484s
     0     0 -258.96126    0  346 -263.27374 -258.96126  1.64%     -  484s
     0     0 -258.96126    0  346 -263.27374 -258.96126  1.64%     -  485s
     0     0 -258.96126    0  346 -263.27374 -258.96126  1.64%     -  485s
     0     0 -258.96126    0  347 -263.27374 -258.96126  1.64%     -  486s
     0     0 -259.10746    0  273 -263.27374 -259.10746  1.58%     -  488s
     0     0 -259.20185    0  344 -263.27374 -259.20185  1.55%     -  489s
     0     0 -259.21168    0  343 -263.27374 -259.21168  1.54%     -  489s
     0     0 -259.21168    0  344 -263.27374 -259.21168  1.54%     -  490s
     0     0 -259.28404    0  346 -263.27374 -259.28404  1.52%     -  490s
     0     0 -259.61347    0  348 -263.27374 -259.61347  1.39%     -  491s
     0     0 -259.61347    0  349 -263.27374 -259.61347  1.39%     -  492s
     0     0 -259.61603    0  353 -263.27374 -259.61603  1.39%     -  492s
     0     0 -259.61603    0  353 -263.27374 -259.61603  1.39%     -  493s
     0     0 -259.64248    0  351 -263.27374 -259.64248  1.38%     -  493s
     0     0 -259.64248    0  351 -263.27374 -259.64248  1.38%     -  494s
     0     0 -259.77025    0  352 -263.27374 -259.77025  1.33%     -  495s
     0     0 -259.79094    0  354 -263.27374 -259.79094  1.32%     -  495s
     0     0 -259.79783    0  354 -263.27374 -259.79783  1.32%     -  496s
     0     0 -259.79783    0  355 -263.27374 -259.79783  1.32%     -  496s
     0     0 -260.09078    0  353 -263.27374 -260.09078  1.21%     -  497s
     0     0 -260.19644    0  342 -263.27374 -260.19644  1.17%     -  498s
     0     0 -260.19856    0  347 -263.27374 -260.19856  1.17%     -  498s
     0     0 -260.45305    0  349 -263.27374 -260.45305  1.07%     -  500s
     0     0 -260.45305    0  326 -263.27374 -260.45305  1.07%     -  504s
     0     0 -260.45305    0  301 -263.27374 -260.45305  1.07%     -  504s
     0     0 -260.45305    0  301 -263.27374 -260.45305  1.07%     -  505s
     0     0 -260.45305    0  305 -263.27374 -260.45305  1.07%     -  505s
     0     0 -260.50584    0  302 -263.27374 -260.50584  1.05%     -  506s
     0     0 -260.50584    0  270 -263.27374 -260.50584  1.05%     -  506s
     0     0 -260.50584    0  236 -263.27374 -260.50584  1.05%     -  506s
     0     0 -260.50584    0  227 -263.27374 -260.50584  1.05%     -  507s
     0     0 -260.50584    0  236 -263.27374 -260.50584  1.05%     -  507s
     0     0 -260.50584    0  237 -263.27374 -260.50584  1.05%     -  507s
     0     0 -260.61428    0  239 -263.27374 -260.61428  1.01%     -  507s
     0     0 -260.61428    0  239 -263.27374 -260.61428  1.01%     -  507s
     0     0 -260.68022    0  240 -263.27374 -260.68022  0.99%     -  507s
     0     0 -260.68161    0  240 -263.27374 -260.68161  0.98%     -  507s
     0     0 -260.68161    0  241 -263.27374 -260.68161  0.98%     -  507s
     0     0 -260.68161    0  241 -263.27374 -260.68161  0.98%     -  507s
     0     0 -260.68161    0  237 -263.27374 -260.68161  0.98%     -  507s
     0     0 -260.68161    0  238 -263.27374 -260.68161  0.98%     -  507s
     0     0 -260.75981    0  233 -263.27374 -260.75981  0.95%     -  507s
     0     0 -260.76233    0  239 -263.27374 -260.76233  0.95%     -  508s
     0     0 -260.76233    0  240 -263.27374 -260.76233  0.95%     -  508s
     0     0 -260.87214    0  236 -263.27374 -260.87214  0.91%     -  508s
     0     0 -260.88388    0  237 -263.27374 -260.88388  0.91%     -  508s
     0     0 -260.89743    0  235 -263.27374 -260.89743  0.90%     -  508s
     0     0 -260.89778    0  235 -263.27374 -260.89778  0.90%     -  508s
     0     0 -260.91452    0  234 -263.27374 -260.91452  0.90%     -  508s
     0     0 -260.96623    0  236 -263.27374 -260.96623  0.88%     -  508s
     0     0 -260.96623    0  237 -263.27374 -260.96623  0.88%     -  508s
     0     0 -261.03432    0  236 -263.27374 -261.03432  0.85%     -  508s
     0     0 -261.04183    0  236 -263.27374 -261.04183  0.85%     -  508s
     0     0 -261.04870    0  238 -263.27374 -261.04870  0.85%     -  508s
     0     0 -261.04986    0  238 -263.27374 -261.04986  0.84%     -  508s
     0     0 -261.23430    0  234 -263.27374 -261.23430  0.77%     -  508s
     0     0 -261.27560    0  237 -263.27374 -261.27560  0.76%     -  508s
     0     0 -261.29647    0  238 -263.27374 -261.29647  0.75%     -  508s
     0     0 -261.29879    0  236 -263.27374 -261.29879  0.75%     -  508s
     0     0 -261.29879    0  236 -263.27374 -261.29879  0.75%     -  508s
     0     0 -261.29879    0  238 -263.27374 -261.29879  0.75%     -  509s
     0     0 -261.29879    0  238 -263.27374 -261.29879  0.75%     -  509s
     0     0 -261.29879    0  234 -263.27374 -261.29879  0.75%     -  509s
     0     0 -261.29879    0  269 -263.27374 -261.29879  0.75%     -  510s
     0     0 -261.29879    0  227 -263.27374 -261.29879  0.75%     -  510s
     0     0 -261.29879    0  227 -263.27374 -261.29879  0.75%     -  510s
     0     0 -261.29879    0  229 -263.27374 -261.29879  0.75%     -  510s
     0     0 -261.29879    0  229 -263.27374 -261.29879  0.75%     -  510s
     0     0 -261.29879    0  226 -263.27374 -261.29879  0.75%     -  510s
     0     0 -261.29879    0  230 -263.27374 -261.29879  0.75%     -  510s
     0     0 -261.29879    0  232 -263.27374 -261.29879  0.75%     -  510s
     0     0 -261.29879    0  234 -263.27374 -261.29879  0.75%     -  510s
     0     0 -261.29879    0  235 -263.27374 -261.29879  0.75%     -  510s
     0     0 -261.50899    0  232 -263.27374 -261.50899  0.67%     -  510s
     0     0 -261.55161    0  226 -263.27374 -261.55161  0.65%     -  510s
     0     0 -261.56830    0  234 -263.27374 -261.56830  0.65%     -  510s
     0     0 -261.56947    0  234 -263.27374 -261.56947  0.65%     -  510s
     0     0 -261.62232    0  235 -263.27374 -261.62232  0.63%     -  510s
     0     0 -261.62232    0  163 -263.27374 -261.62232  0.63%     -  510s
     0     0 -261.62232    0  208 -263.27374 -261.62232  0.63%     -  511s
     0     0 -261.62232    0  217 -263.27374 -261.62232  0.63%     -  511s
     0     0 -261.62232    0  217 -263.27374 -261.62232  0.63%     -  511s
     0     0 -261.62232    0  218 -263.27374 -261.62232  0.63%     -  511s
     0     0 -261.62608    0  218 -263.27374 -261.62608  0.63%     -  511s
     0     0 -261.62901    0  218 -263.27374 -261.62901  0.62%     -  511s
     0     0 -261.62901    0  219 -263.27374 -261.62901  0.62%     -  511s
     0     0 -261.63235    0  218 -263.27374 -261.63235  0.62%     -  511s
     0     0 -261.63235    0  218 -263.27374 -261.63235  0.62%     -  511s
     0     0 -261.64464    0  216 -263.27374 -261.64464  0.62%     -  511s
     0     0 -261.64504    0  217 -263.27374 -261.64504  0.62%     -  511s
     0     0 -261.64504    0  217 -263.27374 -261.64504  0.62%     -  511s
     0     0 -261.64504    0  217 -263.27374 -261.64504  0.62%     -  511s
     0     0 -261.64504    0  217 -263.27374 -261.64504  0.62%     -  511s
     0     2 -261.65133    0  217 -263.27374 -261.65133  0.62%     -  511s

Cutting planes:
  Gomory: 3
  MIR: 1
  Zero half: 45

Explored 13 nodes (96602 simplex iterations) in 511.64 seconds
Thread count was 1 (of 80 available processors)

Solution count 10: -263.274 -263.274 -263.274 ... -328.488

Optimal solution found (tolerance 1.00e-04)
Best objective -2.632737443651e+02, best bound -2.632737443651e+02, gap 0.0000%
